% File represents an instance of a Composite Structure problem to be solved by a CP framework
% Created on 2025-03-26 10:42:02.383
T = 50;
n = 36;
m = 60;
edges = [(1, 2),
(7, 8),
(13, 14),
(19, 20),
(25, 26),
(31, 32),
(2, 3),
(8, 9),
(14, 15),
(20, 21),
(26, 27),
(32, 33),
(3, 4),
(10, 9),
(16, 15),
(22, 21),
(27, 28),
(33, 34),
(5, 4),
(10, 11),
(17, 16),
(22, 23),
(29, 28),
(35, 34),
(5, 6),
(11, 12),
(17, 18),
(24, 23),
(29, 30),
(35, 36),
(1, 7),
(7, 13),
(19, 13),
(25, 19),
(31, 25),
(2, 8),
(8, 14),
(20, 14),
(26, 20),
(32, 26),
(3, 9),
(9, 15),
(21, 15),
(27, 21),
(33, 27),
(10, 4),
(10, 16),
(22, 16),
(22, 28),
(34, 28),
(5, 11),
(17, 11),
(17, 23),
(29, 23),
(35, 29),
(6, 12),
(18, 12),
(24, 18),
(24, 30),
(36, 30)];
counts = [|10, 12, 10, 10,
|10, 12, 10, 6,
|8, 12, 8, 6,
|6, 12, 6, 4,
|6, 12, 6, 6,
|4, 12, 4, 4,
|10, 12, 10, 8,
|10, 12, 10, 4,
|8, 10, 8, 4,
|8, 12, 8, 4,
|6, 12, 6, 2,
|4, 10, 4, 2,
|10, 12, 10, 6,
|10, 10, 10, 2,
|8, 8, 8, 2,
|8, 10, 8, 2,
|8, 12, 8, 2,
|6, 12, 6, 2,
|10, 12, 10, 8,
|10, 10, 10, 4,
|8, 10, 8, 2,
|10, 10, 10, 2,
|8, 10, 8, 2,
|8, 14, 8, 2,
|10, 14, 10, 10,
|10, 14, 10, 4,
|8, 14, 8, 2,
|8, 10, 8, 2,
|8, 12, 8, 2,
|8, 10, 8, 2,
|10, 18, 10, 12,
|10, 18, 10, 6,
|10, 16, 10, 2,
|8, 14, 8, 2,
|8, 16, 8, 4,
|8, 16, 8, 2|];
